50
120
99
99
98
98
94
93
92
90
90
89
89
88
84
81
79
78
77
77
76
75
74
72
72
70
69
66
64
63
60
57
57
56
54
52
47
45
43
43
43
41
40
39
39
38
37
37
36
35
34
30
